120
150
49
59
53
56
49
48
57
53
41
42
53
48
52
53
50
54
43
51
40
58
58
49
43
46
54
50
41
51
52
47
51
56
44
44
45
52
43
51
58
47
52
54
55
41
60
40
49
50
58
42
57
41
53
60
48
56
47
55
50
42
54
53
50
58
43
56
54
60
40
50
54
49
47
56
48
55
54
40
52
46
52
40
47
54
49
42
53
46
47
45
55
51
46
53
53
50
41
42
51
47
53
55
49
51
46
46
51
48
45
56
51
51
59
49
60
52
52
60
48
60
